s td 90 11 100
b 1 1 2 11
b 2 9 10 20
b 3 81 91 92
b 4 90 99 100
b 5 2 3 11 12
b 6 8 9 19 20
b 7 3 4 13 24 35 46 55 66 77 88 97
b 8 4 13 24 35 46 55 57 66 77 88 97
b 9 4 13 24 35 46 57 66 68 77 88 97
b 10 4 13 24 35 46 57 68 77 79 88 97
b 11 4 13 24 35 46 57 68 70 79 88 97
b 12 4 13 24 35 46 57 59 68 70 79
b 13 4 13 24 35 46 48 57 59 68 70
b 14 4 13 24 35 37 46 48 57 59 70
b 15 4 13 24 26 35 37 46 48 59 70
b 16 4 13 15 24 26 35 37 48 59 70
b 17 4 6 15 26 37 48 59 70
b 18 4 5 6 15
b 19 6 15 17 26 37 48 59 70
b 20 6 17 26 28 37 48 59 70
b 21 6 17 28 37 39 48 59 70
b 22 6 17 28 30 39 48 59 70
b 23 6 17 19 28 30 39
b 24 6 8 17 19 28 30
b 25 6 7 8 17
b 26 8 17 18 19 28
b 27 8 19 20 30
b 28 19 28 29 30 39
b 29 30 39 48 50 59 70
b 30 30 39 40 50
b 31 39 48 49 50 59
b 32 50 59 60 70
b 33 28 37 38 39 48
b 34 17 26 27 28 37
b 35 6 15 16 17 26
b 36 4 13 14 15 24
b 37 15 24 25 26 35
b 38 26 35 36 37 46
b 39 37 46 47 48 57
b 40 48 57 58 59 68
b 41 59 68 69 70 79
b 42 70 79 88 97 99
b 43 70 79 88 89 99
b 44 70 79 80 89 99
b 45 88 97 98 99
b 46 68 77 78 79 88
b 47 57 66 67 68 77
b 48 46 55 56 57 66
b 49 3 13 24 35 44 46 55 66 77 88 97
b 50 3 13 24 33 35 44 55 66 77 88 97
b 51 3 13 22 24 33 44 55 66 77 88 97
b 52 3 13 22 31 33 44 55 66 77 88 97
b 53 3 11 13 22 31
b 54 3 11 12 13 22
b 55 11 21 22 31
b 56 22 31 33 42 44 55 66 77 88 97
b 57 22 31 32 33 42
b 58 31 33 42 44 53 55 66 77 88 97
b 59 31 42 44 53 55 64 66 77 88 97
b 60 31 42 53 55 64 66 75 77 88 97
b 61 31 42 53 64 66 75 77 86 88 97
b 62 31 42 53 64 75 86 95 97
b 63 31 42 53 64 75 84 86 95
b 64 31 42 53 64 73 75 84 95
b 65 31 42 53 62 64 73 84 95
b 66 31 42 53 61 62 73 84 95
b 67 31 42 52 53 61 62
b 68 31 42 51 52 61
b 69 31 41 42 51
b 70 61 62 73 84 94 95
b 71 61 62 73 83 84 94
b 72 61 62 72 73 83 94
b 73 61 72 83 92 94
b 74 61 72 82 83 92
b 75 61 71 72 82 92
b 76 83 92 93 94
b 77 53 62 63 64 73
b 78 64 73 74 75 84
b 79 75 84 85 86 95
b 80 86 95 96 97
b 81 66 75 76 77 86
b 82 77 86 87 88 97
b 83 55 64 65 66 75
b 84 44 53 54 55 64
b 85 33 42 43 44 53
b 86 13 22 23 24 33
b 87 24 33 34 35 44
b 88 35 44 45 46 55
b 89 71 81 82 92
b 90 80 89 90 99
1 5
2 6
3 89
4 90
5 54
6 27
7 8
7 49
8 9
8 48
9 10
9 47
10 11
10 46
11 12
11 42
12 13
12 41
13 14
13 40
14 15
14 39
15 16
15 38
16 17
16 36
16 37
17 18
17 19
19 20
19 35
20 21
20 34
21 22
21 33
22 23
22 29
23 24
23 28
24 25
24 26
24 27
29 30
29 31
29 32
42 43
42 45
43 44
44 90
49 50
49 88
50 51
50 87
51 52
51 86
52 53
52 56
53 54
53 55
56 57
56 58
58 59
58 85
59 60
59 84
60 61
60 83
61 62
61 81
61 82
62 63
62 80
63 64
63 79
64 65
64 78
65 66
65 77
66 67
66 70
67 68
68 69
70 71
71 72
72 73
73 74
73 76
74 75
75 89
